p cnf 350 1193
c t mc
-3 1 0
-3 -2 0
-1 2 3 0
5 3 0
5 4 0
-3 -4 -5 0
-6 -1 0
-6 5 0
1 -5 6 0
9 -7 0
9 8 0
7 -8 -9 0
10 6 0
10 9 0
-6 -9 -10 0
11 12 -13 0
-11 -12 -13 0
11 -12 13 0
-11 12 13 0
15 11 0
15 -14 0
-11 14 -15 0
-17 4 0
-17 16 0
-4 -16 17 0
15 -17 -18 0
-15 17 -18 0
15 17 18 0
-15 -17 18 0
-19 -13 0
-19 -18 0
13 18 19 0
20 9 0
20 -19 0
-9 19 -20 0
20 21 -22 0
-20 -21 -22 0
20 -21 22 0
-20 21 22 0
24 -3 0
24 -23 0
3 23 -24 0
25 22 0
25 -24 0
-22 24 -25 0
-28 26 0
-28 27 0
-26 -27 28 0
-29 -28 0
-29 24 0
28 -24 29 0
-30 25 0
-30 -29 0
-25 29 30 0
31 1 0
31 -26 0
-1 26 -31 0
32 -31 0
32 21 0
31 -21 -32 0
33 8 0
33 -23 0
-8 23 -33 0
-11 -33 -34 0
11 33 -34 0
-11 33 34 0
11 -33 34 0
-35 -32 0
-35 34 0
32 -34 35 0
35 13 -36 0
-35 -13 -36 0
35 -13 36 0
-35 13 36 0
38 -37 0
38 -16 0
37 16 -38 0
4 -38 -39 0
-4 38 -39 0
4 38 39 0
-4 -38 39 0
39 -12 -40 0
-39 12 -40 0
39 12 40 0
-39 -12 40 0
7 23 -41 0
-7 -23 -41 0
7 -23 41 0
-7 23 41 0
42 -31 0
42 -32 0
31 32 -42 0
-5 -42 -43 0
5 42 -43 0
-5 42 43 0
5 -42 43 0
44 41 0
44 -43 0
-41 43 -44 0
40 -44 -45 0
-40 44 -45 0
40 44 45 0
-40 -44 45 0
47 -12 0
47 -46 0
12 46 -47 0
-47 9 -48 0
47 -9 -48 0
-47 -9 48 0
47 9 48 0
-2 48 -49 0
2 -48 -49 0
-2 -48 49 0
2 48 49 0
-50 -45 0
-50 -49 0
45 49 50 0
-36 -50 -51 0
36 50 -51 0
-36 50 51 0
36 -50 51 0
-52 -30 0
-52 -51 0
30 51 52 0
53 -10 0
53 52 0
10 -52 -53 0
54 -32 0
54 -41 0
32 41 -54 0
54 23 -55 0
-54 -23 -55 0
54 -23 55 0
-54 23 55 0
23 -56 -57 0
-23 56 -57 0
23 56 57 0
-23 -56 57 0
17 58 -59 0
-17 -58 -59 0
17 -58 59 0
-17 58 59 0
60 -42 0
60 -59 0
42 59 -60 0
61 17 0
61 31 0
-17 -31 -61 0
-60 -61 -62 0
60 61 -62 0
-60 61 62 0
60 -61 62 0
63 57 0
63 -62 0
-57 62 -63 0
64 -55 0
64 -63 0
55 63 -64 0
65 -53 0
65 -64 0
53 64 -65 0
-66 -57 0
-66 -33 0
57 33 66 0
-67 -23 0
-67 -26 0
23 26 67 0
-68 -8 0
-68 -60 0
8 60 68 0
-69 67 0
-69 68 0
-67 -68 69 0
-70 -69 0
-70 -36 0
69 36 70 0
71 66 0
71 70 0
-66 -70 -71 0
-72 -16 0
-72 -1 0
16 1 72 0
-73 16 0
-73 -72 0
-16 72 73 0
-74 3 0
-74 73 0
-3 -73 74 0
-7 74 -75 0
7 -74 -75 0
-7 -74 75 0
7 74 75 0
-71 75 -76 0
71 -75 -76 0
-71 -75 76 0
71 75 76 0
-77 -42 0
-77 -72 0
42 72 77 0
78 58 0
78 -23 0
-58 23 -78 0
-79 -8 0
-79 -78 0
8 78 79 0
-80 77 0
-80 79 0
-77 -79 80 0
-81 72 0
-81 68 0
-72 -68 81 0
-82 -62 0
-82 -81 0
62 81 82 0
83 80 0
83 -82 0
-80 82 -83 0
84 38 0
84 -7 0
-38 7 -84 0
85 -84 0
85 -8 0
84 8 -85 0
86 -27 0
86 -85 0
27 85 -86 0
-43 -48 -87 0
43 48 -87 0
-43 48 87 0
43 -48 87 0
88 86 0
88 -87 0
-86 87 -88 0
32 27 -89 0
-32 -27 -89 0
32 -27 89 0
-32 27 89 0
90 -16 0
90 -89 0
16 89 -90 0
91 -46 0
91 -84 0
46 84 -91 0
92 -67 0
92 -16 0
67 16 -92 0
93 92 0
93 -32 0
-92 32 -93 0
94 -93 0
94 -1 0
93 1 -94 0
-95 -91 0
-95 94 0
91 -94 95 0
-96 -2 0
-96 -9 0
2 9 96 0
96 26 -97 0
-96 -26 -97 0
96 -26 97 0
-96 26 97 0
98 -97 0
98 44 0
97 -44 -98 0
-95 98 -99 0
95 -98 -99 0
-95 -98 99 0
95 98 99 0
90 99 -100 0
-90 -99 -100 0
90 -99 100 0
-90 99 100 0
101 -88 0
101 -100 0
88 100 -101 0
102 -41 0
102 16 0
41 -16 -102 0
103 -13 0
103 -102 0
13 102 -103 0
-104 -47 0
-104 42 0
47 -42 104 0
-103 -104 -105 0
103 104 -105 0
-103 104 105 0
103 -104 105 0
-106 -105 0
-106 -35 0
105 35 106 0
107 -101 0
107 -106 0
101 106 -107 0
-20 92 -108 0
20 -92 -108 0
-20 -92 108 0
20 92 108 0
-109 -16 0
-109 14 0
16 -14 109 0
110 -63 0
110 49 0
63 -49 -110 0
-111 -109 0
-111 -110 0
109 110 111 0
112 108 0
112 111 0
-108 -111 -112 0
-113 -48 0
-113 -11 0
48 11 113 0
-114 -103 0
-114 -20 0
103 20 114 0
-113 114 -115 0
113 -114 -115 0
-113 -114 115 0
113 114 115 0
-116 -59 0
-116 7 0
59 -7 116 0
117 -14 0
117 -116 0
14 116 -117 0
118 -115 0
118 -117 0
115 117 -118 0
119 112 0
119 -118 0
-112 118 -119 0
-120 107 0
-120 119 0
-107 -119 120 0
-121 -36 0
-121 -46 0
36 46 121 0
122 -94 0
122 121 0
94 -121 -122 0
-123 -32 0
-123 -12 0
32 12 123 0
-124 123 0
-124 -34 0
-123 34 124 0
125 20 0
125 27 0
-20 -27 -125 0
-126 -5 0
-126 31 0
5 -31 126 0
-125 -126 -127 0
125 126 -127 0
-125 126 127 0
125 -126 127 0
128 127 0
128 -90 0
-127 90 -128 0
129 -124 0
129 -128 0
124 128 -129 0
122 129 -130 0
-122 -129 -130 0
122 -129 130 0
-122 129 130 0
131 120 0
131 130 0
-120 -130 -131 0
132 -108 0
132 -123 0
108 123 -132 0
-133 -132 0
-133 68 0
132 -68 133 0
135 -12 0
135 -134 0
12 134 -135 0
-136 -46 0
-136 -135 0
46 135 136 0
-136 28 -137 0
136 -28 -137 0
-136 -28 137 0
136 28 137 0
138 45 0
138 -94 0
-45 94 -138 0
139 138 0
139 31 0
-138 -31 -139 0
-140 137 0
-140 139 0
-137 -139 140 0
141 89 0
141 -14 0
-89 14 -141 0
121 -141 -142 0
-121 141 -142 0
121 141 142 0
-121 -141 142 0
-143 140 0
-143 -142 0
-140 142 143 0
133 -143 -144 0
-133 143 -144 0
133 143 144 0
-133 -143 144 0
-145 -27 0
-145 39 0
27 -39 145 0
146 -5 0
146 145 0
5 -145 -146 0
147 -4 0
147 146 0
4 -146 -147 0
149 -148 0
149 8 0
148 -8 -149 0
-150 -37 0
-150 8 0
37 -8 150 0
-134 150 -151 0
134 -150 -151 0
-134 -150 151 0
134 150 151 0
-152 -149 0
-152 -151 0
149 151 152 0
-153 -147 0
-153 152 0
147 -152 153 0
-154 -33 0
-154 -43 0
33 43 154 0
-14 154 -155 0
14 -154 -155 0
-14 -154 155 0
14 154 155 0
153 -155 -156 0
-153 155 -156 0
153 155 156 0
-153 -155 156 0
-157 -144 0
-157 -156 0
144 156 157 0
74 -17 -158 0
-74 17 -158 0
74 17 158 0
-74 -17 158 0
157 158 -159 0
-157 -158 -159 0
157 -158 159 0
-157 158 159 0
-160 -39 0
-160 5 0
39 -5 160 0
32 8 -161 0
-32 -8 -161 0
32 -8 161 0
-32 8 161 0
162 7 0
162 161 0
-7 -161 -162 0
-163 160 0
-163 162 0
-160 -162 163 0
164 13 0
164 57 0
-13 -57 -164 0
-165 16 0
-165 -19 0
-16 19 165 0
-38 165 -166 0
38 -165 -166 0
-38 -165 166 0
38 165 166 0
93 166 -167 0
-93 -166 -167 0
93 -166 167 0
-93 166 167 0
96 5 -168 0
-96 -5 -168 0
96 -5 168 0
-96 5 168 0
-169 -81 0
-169 105 0
81 -105 169 0
-170 169 0
-170 -102 0
-169 102 170 0
-171 -168 0
-171 -170 0
168 170 171 0
-172 -171 0
-172 50 0
171 -50 172 0
167 -172 -173 0
-167 172 -173 0
167 172 173 0
-167 -172 173 0
174 164 0
174 -173 0
-164 173 -174 0
-175 163 0
-175 -174 0
-163 174 175 0
-18 -43 -176 0
18 43 -176 0
-18 43 176 0
18 -43 176 0
-175 176 -177 0
175 -176 -177 0
-175 -176 177 0
175 176 177 0
178 11 0
178 -102 0
-11 102 -178 0
179 -35 0
179 4 0
35 -4 -179 0
-180 14 0
-180 -179 0
-14 179 180 0
181 -150 0
181 74 0
150 -74 -181 0
-182 181 0
-182 137 0
-181 -137 182 0
183 182 0
183 -54 0
-182 54 -183 0
-93 -74 -184 0
93 74 -184 0
-93 74 184 0
93 -74 184 0
-183 184 -185 0
183 -184 -185 0
-183 -184 185 0
183 184 185 0
-186 180 0
-186 -185 0
-180 185 186 0
187 -178 0
187 186 0
178 -186 -187 0
-28 169 -188 0
28 -169 -188 0
-28 -169 188 0
28 169 188 0
-189 45 0
-189 188 0
-45 -188 189 0
190 20 0
190 -189 0
-20 189 -190 0
-191 47 0
-191 -190 0
-47 190 191 0
-192 -187 0
-192 -191 0
187 191 192 0
193 177 0
193 -192 0
-177 192 -193 0
194 159 0
194 -193 0
-159 193 -194 0
-195 -116 0
-195 -81 0
116 81 195 0
-196 195 0
-196 -82 0
-195 82 196 0
-197 7 0
-197 196 0
-7 -196 197 0
94 -43 -198 0
-94 43 -198 0
94 43 198 0
-94 -43 198 0
197 -198 -199 0
-197 198 -199 0
197 198 199 0
-197 -198 199 0
200 36 0
200 -161 0
-36 161 -200 0
-201 -79 0
-201 200 0
79 -200 201 0
202 199 0
202 201 0
-199 -201 -202 0
-3 137 -203 0
3 -137 -203 0
-3 -137 203 0
3 137 203 0
89 -108 -204 0
-89 108 -204 0
89 108 204 0
-89 -108 204 0
-203 -204 -205 0
203 204 -205 0
-203 204 205 0
203 -204 205 0
-206 -202 0
-206 -205 0
202 205 206 0
207 194 0
207 -206 0
-194 206 -207 0
208 16 0
208 42 0
-16 -42 -208 0
-209 -208 0
-209 188 0
208 -188 209 0
210 -85 0
210 209 0
85 -209 -210 0
211 -4 0
211 -96 0
4 96 -211 0
-212 -74 0
-212 -211 0
74 211 212 0
213 203 0
213 212 0
-203 -212 -213 0
42 213 -214 0
-42 -213 -214 0
42 -213 214 0
-42 213 214 0
210 214 -215 0
-210 -214 -215 0
210 -214 215 0
-210 214 215 0
116 -34 -216 0
-116 34 -216 0
116 34 216 0
-116 -34 216 0
-217 -15 0
-217 92 0
15 -92 217 0
139 44 -218 0
-139 -44 -218 0
139 -44 218 0
-139 44 218 0
-219 217 0
-219 218 0
-217 -218 219 0
220 -216 0
220 -219 0
216 219 -220 0
-221 121 0
-221 90 0
-121 -90 221 0
-222 -220 0
-222 221 0
220 -221 222 0
149 110 -223 0
-149 -110 -223 0
149 -110 223 0
-149 110 223 0
166 -223 -224 0
-166 223 -224 0
166 223 224 0
-166 -223 224 0
-225 224 0
-225 125 0
-224 -125 225 0
-226 8 0
-226 -97 0
-8 97 226 0
-227 -97 0
-227 -89 0
97 89 227 0
226 227 -228 0
-226 -227 -228 0
226 -227 228 0
-226 227 228 0
229 225 0
229 228 0
-225 -228 -229 0
230 -222 0
230 229 0
222 -229 -230 0
-231 215 0
-231 230 0
-215 -230 231 0
207 231 -232 0
-207 -231 -232 0
207 -231 232 0
-207 231 232 0
233 -131 0
233 232 0
131 -232 -233 0
234 -83 0
234 -233 0
83 233 -234 0
-69 89 -235 0
69 -89 -235 0
-69 -89 235 0
69 89 235 0
-236 -46 0
-236 -196 0
46 196 236 0
237 236 0
237 139 0
-236 -139 -237 0
-238 -90 0
-238 237 0
90 -237 238 0
-238 -146 -239 0
238 146 -239 0
-238 146 239 0
238 -146 239 0
240 235 0
240 -239 0
-235 239 -240 0
-241 125 0
-241 -18 0
-125 18 241 0
-242 -7 0
-242 -32 0
7 32 242 0
243 -241 0
243 -242 0
241 242 -243 0
-244 12 0
-244 40 0
-12 -40 244 0
-245 141 0
-245 244 0
-141 -244 245 0
-246 -148 0
-246 -245 0
148 245 246 0
247 243 0
247 246 0
-243 -246 -247 0
-54 67 -248 0
54 -67 -248 0
-54 -67 248 0
54 67 248 0
249 113 0
249 -248 0
-113 248 -249 0
-250 45 0
-250 -93 0
-45 93 250 0
-251 -249 0
-251 -250 0
249 250 251 0
-252 -126 0
-252 11 0
126 -11 252 0
253 -251 0
253 252 0
251 -252 -253 0
-254 41 0
-254 -58 0
-41 58 254 0
-195 -254 -255 0
195 254 -255 0
-195 254 255 0
195 -254 255 0
-256 255 0
-256 -223 0
-255 223 256 0
257 253 0
257 256 0
-253 -256 -257 0
258 -247 0
258 -257 0
247 257 -258 0
259 -240 0
259 258 0
240 -258 -259 0
-260 22 0
-260 61 0
-22 -61 260 0
261 -19 0
261 -63 0
19 63 -261 0
-22 4 -262 0
22 -4 -262 0
-22 -4 262 0
22 4 262 0
-263 -262 0
-263 103 0
262 -103 263 0
-264 -261 0
-264 263 0
261 -263 264 0
-265 -168 0
-265 -98 0
168 98 265 0
-266 72 0
-266 265 0
-72 -265 266 0
267 -264 0
267 266 0
264 -266 -267 0
-268 -260 0
-268 267 0
260 -267 268 0
269 259 0
269 268 0
-259 -268 -269 0
-270 234 0
-270 269 0
-234 -269 270 0
-38 13 -271 0
38 -13 -271 0
-38 -13 271 0
38 13 271 0
-218 -181 -273 0
218 181 -273 0
-218 181 273 0
218 -181 273 0
274 -272 0
274 273 0
272 -273 -274 0
275 -31 0
275 67 0
31 -67 -275 0
276 274 0
276 275 0
-274 -275 -276 0
-204 -15 -277 0
204 15 -277 0
-204 15 277 0
204 -15 277 0
-20 19 -278 0
20 -19 -278 0
-20 -19 278 0
20 19 278 0
-279 278 0
-279 7 0
-278 -7 279 0
279 273 -280 0
-279 -273 -280 0
279 -273 280 0
-279 273 280 0
-281 -277 0
-281 280 0
277 -280 281 0
-276 -281 -282 0
276 281 -282 0
-276 281 282 0
276 -281 282 0
283 -126 0
283 137 0
126 -137 -283 0
-284 61 0
-284 -137 0
-61 137 284 0
-285 283 0
-285 284 0
-283 -284 285 0
6 196 -286 0
-6 -196 -286 0
6 -196 286 0
-6 196 286 0
287 286 0
287 200 0
-286 -200 -287 0
-288 -285 0
-288 287 0
285 -287 288 0
49 -135 -289 0
-49 135 -289 0
49 135 289 0
-49 -135 289 0
290 2 0
290 289 0
-2 -289 -290 0
-291 -9 0
-291 -290 0
9 290 291 0
-292 291 0
-292 47 0
-291 -47 292 0
293 -20 0
293 292 0
20 -292 -293 0
-294 95 0
-294 -85 0
-95 85 294 0
-295 -293 0
-295 294 0
293 -294 295 0
-296 -169 0
-296 295 0
169 -295 296 0
288 -296 -297 0
-288 296 -297 0
288 296 297 0
-288 -296 297 0
-282 -297 -298 0
282 297 -298 0
-282 297 298 0
282 -297 298 0
-41 23 -299 0
41 -23 -299 0
-41 -23 299 0
41 23 299 0
181 290 -300 0
-181 -290 -300 0
181 -290 300 0
-181 290 300 0
-301 79 0
-301 -200 0
-79 200 301 0
5 -48 -302 0
-5 48 -302 0
5 48 302 0
-5 -48 302 0
-303 105 0
-303 302 0
-105 -302 303 0
301 -303 -304 0
-301 303 -304 0
301 303 304 0
-301 -303 304 0
-305 -300 0
-305 -304 0
300 304 305 0
-306 3 0
-306 -48 0
-3 48 306 0
-307 -305 0
-307 306 0
305 -306 307 0
308 299 0
308 -307 0
-299 307 -308 0
-309 298 0
-309 308 0
-298 -308 309 0
310 -271 0
310 309 0
271 -309 -310 0
-311 -270 0
-311 310 0
270 -310 311 0
312 -76 0
312 311 0
76 -311 -312 0
313 -93 0
313 -72 0
93 72 -313 0
-314 34 0
-314 38 0
-34 -38 314 0
-315 -314 0
-315 -12 0
314 12 315 0
315 -223 -316 0
-315 223 -316 0
315 223 316 0
-315 -223 316 0
303 -316 -317 0
-303 316 -317 0
303 316 317 0
-303 -316 317 0
313 -317 -318 0
-313 317 -318 0
313 317 318 0
-313 -317 318 0
-319 -97 0
-319 -189 0
97 189 319 0
-31 -77 -320 0
31 77 -320 0
-31 77 320 0
31 -77 320 0
-320 20 -321 0
320 -20 -321 0
-320 -20 321 0
320 20 321 0
322 319 0
322 321 0
-319 -321 -322 0
323 136 0
323 -248 0
-136 248 -323 0
324 200 0
324 190 0
-200 -190 -324 0
-325 -323 0
-325 324 0
323 -324 325 0
326 149 0
326 -104 0
-149 104 -326 0
327 -78 0
327 89 0
78 -89 -327 0
-328 327 0
-328 102 0
-327 -102 328 0
-326 -328 -329 0
326 328 -329 0
-326 328 329 0
326 -328 329 0
-330 325 0
-330 -329 0
-325 329 330 0
-331 19 0
-331 -244 0
-19 244 331 0
-332 -26 0
-332 40 0
26 -40 332 0
-209 -15 -333 0
209 15 -333 0
-209 15 333 0
209 -15 333 0
334 332 0
334 333 0
-332 -333 -334 0
331 334 -335 0
-331 -334 -335 0
331 -334 335 0
-331 334 335 0
336 -330 0
336 -335 0
330 335 -336 0
-212 -44 -337 0
212 44 -337 0
-212 44 337 0
212 -44 337 0
-338 -85 0
-338 68 0
85 -68 338 0
-338 226 -339 0
338 -226 -339 0
-338 -226 339 0
338 226 339 0
340 -337 0
340 339 0
337 -339 -340 0
336 340 -341 0
-336 -340 -341 0
336 -340 341 0
-336 340 341 0
-322 -341 -342 0
322 341 -342 0
-322 341 342 0
322 -341 342 0
318 -342 -343 0
-318 342 -343 0
318 342 343 0
-318 -342 343 0
312 -343 -344 0
-312 343 -344 0
312 343 344 0
-312 -343 344 0
-345 65 0
-345 344 0
-65 -344 345 0
-327 -293 -346 0
327 293 -346 0
-327 293 346 0
327 -293 346 0
347 35 0
347 338 0
-35 -338 -347 0
-348 -226 0
-348 -347 0
226 347 348 0
349 346 0
349 -348 0
-346 348 -349 0
-350 -345 0
-350 349 0
345 -349 350 0
-44 146 -309 -74 -148 0
256 -118 122 -255 267 -12 45 -215 -343 0
142 17 94 -105 -275 237 -185 127 0
-90 345 68 -277 -85 -146 235 193 12 161 0
-155 112 197 -256 285 265 136 0
-251 92 -152 245 -27 30 96 278 -23 114 0
336 -143 -49 -140 -316 260 -268 199 0
-37 -158 226 -30 72 -206 -169 -2 0
-324 85 -14 -73 290 142 129 241 56 223 0
31 18 0
163 -345 42 -23 54 322 -155 -82 -294 -186 0
108 166 -313 0
-146 -69 0
264 33 115 -170 0
-191 24 -213 155 134 0
-61 -305 179 246 0
-194 -339 -243 286 -299 11 -41 -159 -145 -90 0
134 98 -322 243 305 9 62 -329 0
-91 -248 -337 -169 347 326 0
350 99 -238 -83 262 -295 -71 0
-133 -282 308 209 46 199 237 -140 -4 15 0
103 -312 142 -148 0
-6 -37 -229 24 202 0
-140 -114 0
-243 114 -329 -129 96 -29 -281 -148 132 0
283 -296 65 104 -137 303 0
-45 213 55 -96 190 -146 344 28 -333 0
284 286 178 -49 0
49 151 137 349 152 -341 -160 0
-150 326 90 0
-64 222 -37 114 100 0
201 -323 -280 326 161 235 -14 -330 333 0
104 283 230 0
-7 10 -245 -150 123 -107 0
199 85 -264 47 -148 -191 68 0
171 62 -88 41 -315 190 179 -241 0
159 272 -167 348 165 -3 179 0
36 -24 -255 251 -127 43 224 0
-80 147 264 -100 75 -191 200 13 -60 -105 0
140 232 -322 158 144 152 -141 -45 269 0
-198 -38 -187 -175 -254 17 -252 0
-8 -153 -95 -60 -313 -343 -294 -346 -155 0
-92 39 84 -312 69 282 42 -75 -82 0
162 -188 328 113 283 -56 119 0
9 55 176 -237 0
-290 24 0
334 229 321 -214 46 16 78 0
192 207 -12 305 -349 160 304 -46 206 0
-260 -212 300 -196 -71 -93 0
-314 -343 120 -162 223 -68 82 0
-278 274 -169 -160 349 -180 -289 204 13 217 0
-111 325 106 -12 -79 0
137 62 139 78 -293 -152 -256 -195 321 0
-63 280 -200 -92 -158 -346 289 -271 -8 -14 0
246 -4 166 0
-10 93 -118 127 0
-172 139 280 312 318 -237 -289 2 0
241 73 204 155 271 -113 136 339 0
311 46 -118 136 0
332 217 136 0
66 118 -260 148 252 74 232 -172 97 -71 0
59 88 -189 -92 0
-232 162 -160 101 -184 0
210 -147 138 -235 212 179 -339 -101 0
78 -349 -196 246 0
331 172 -26 0
335 -222 -52 111 -8 58 0
-227 123 -244 338 0
-170 58 -88 -346 -99 0
-313 125 215 -87 -208 37 -23 0
-122 28 16 -40 -308 -45 -30 -345 0
226 187 79 170 207 -68 0
173 -98 -65 -85 0
-249 -25 -306 77 -65 -165 333 0
34 32 -164 -301 249 0
-107 -120 -143 298 -280 102 197 -303 0
-309 132 106 14 -302 36 0
-150 -228 35 305 299 2 245 -222 0
342 -300 -215 301 -76 -82 -233 21 0
-53 156 168 -75 -317 -281 -244 326 -210 0
20 -217 219 -118 -35 201 45 0
167 135 99 -194 -168 -24 0
-26 45 -216 0
-216 -240 -290 -213 65 0
271 103 349 -213 -254 100 85 -135 345 0
-119 185 -241 -87 132 -184 0
3 -55 -165 0
62 -276 51 32 -182 -343 156 -131 0
86 -48 198 -74 -132 -189 171 0
-285 121 -9 -63 350 126 0
-72 336 -4 -180 -171 -217 318 161 -324 306 0
-252 -322 -161 11 54 33 -210 0
-126 -180 181 -145 -269 255 99 350 152 11 0
121 -136 -218 -295 42 132 -98 -80 -206 -164 0
-229 -47 250 -18 83 330 -146 0
284 229 191 0
267 234 232 -42 -254 132 -28 -138 0
296 -146 0
-57 -217 -24 143 -81 -213 -229 -42 -12 0
-97 -47 140 -188 -308 60 0
-320 -50 106 -252 39 8 -16 301 0
-82 323 350 -333 -70 75 0
-184 32 -214 212 -346 0
342 285 147 -63 -26 266 175 15 -31 0
75 70 318 0
-138 -191 -83 0
282 -146 -340 -121 -128 74 98 200 0
-189 -103 234 0
350 0
